c *********************************
c * Circuit generated by BenCGen
c *
c * RippleCarryAdderSubtractor_80_80_80_OutSunT
c *
c * Ports with 1 gate(s): 2
c * Ports with 2 gate(s): 482
c * Total gates: 484
c *********************************
p cnf 644 1691
1 243 0
-1 -243 0
1 -242 0
243 -242 0
-1 -243 242 0
242 244 0
-242 -244 0
81 242 -245 0
-81 242 245 0
81 -242 245 0
-81 -242 -245 0
82 242 -246 0
-82 242 246 0
82 -242 246 0
-82 -242 -246 0
83 242 -247 0
-83 242 247 0
83 -242 247 0
-83 -242 -247 0
84 242 -248 0
-84 242 248 0
84 -242 248 0
-84 -242 -248 0
85 242 -249 0
-85 242 249 0
85 -242 249 0
-85 -242 -249 0
86 242 -250 0
-86 242 250 0
86 -242 250 0
-86 -242 -250 0
87 242 -251 0
-87 242 251 0
87 -242 251 0
-87 -242 -251 0
88 242 -252 0
-88 242 252 0
88 -242 252 0
-88 -242 -252 0
89 242 -253 0
-89 242 253 0
89 -242 253 0
-89 -242 -253 0
90 242 -254 0
-90 242 254 0
90 -242 254 0
-90 -242 -254 0
91 242 -255 0
-91 242 255 0
91 -242 255 0
-91 -242 -255 0
92 242 -256 0
-92 242 256 0
92 -242 256 0
-92 -242 -256 0
93 242 -257 0
-93 242 257 0
93 -242 257 0
-93 -242 -257 0
94 242 -258 0
-94 242 258 0
94 -242 258 0
-94 -242 -258 0
95 242 -259 0
-95 242 259 0
95 -242 259 0
-95 -242 -259 0
96 242 -260 0
-96 242 260 0
96 -242 260 0
-96 -242 -260 0
97 242 -261 0
-97 242 261 0
97 -242 261 0
-97 -242 -261 0
98 242 -262 0
-98 242 262 0
98 -242 262 0
-98 -242 -262 0
99 242 -263 0
-99 242 263 0
99 -242 263 0
-99 -242 -263 0
100 242 -264 0
-100 242 264 0
100 -242 264 0
-100 -242 -264 0
101 242 -265 0
-101 242 265 0
101 -242 265 0
-101 -242 -265 0
102 242 -266 0
-102 242 266 0
102 -242 266 0
-102 -242 -266 0
103 242 -267 0
-103 242 267 0
103 -242 267 0
-103 -242 -267 0
104 242 -268 0
-104 242 268 0
104 -242 268 0
-104 -242 -268 0
105 242 -269 0
-105 242 269 0
105 -242 269 0
-105 -242 -269 0
106 242 -270 0
-106 242 270 0
106 -242 270 0
-106 -242 -270 0
107 242 -271 0
-107 242 271 0
107 -242 271 0
-107 -242 -271 0
108 242 -272 0
-108 242 272 0
108 -242 272 0
-108 -242 -272 0
109 242 -273 0
-109 242 273 0
109 -242 273 0
-109 -242 -273 0
110 242 -274 0
-110 242 274 0
110 -242 274 0
-110 -242 -274 0
111 242 -275 0
-111 242 275 0
111 -242 275 0
-111 -242 -275 0
112 242 -276 0
-112 242 276 0
112 -242 276 0
-112 -242 -276 0
113 242 -277 0
-113 242 277 0
113 -242 277 0
-113 -242 -277 0
114 242 -278 0
-114 242 278 0
114 -242 278 0
-114 -242 -278 0
115 242 -279 0
-115 242 279 0
115 -242 279 0
-115 -242 -279 0
116 242 -280 0
-116 242 280 0
116 -242 280 0
-116 -242 -280 0
117 242 -281 0
-117 242 281 0
117 -242 281 0
-117 -242 -281 0
118 242 -282 0
-118 242 282 0
118 -242 282 0
-118 -242 -282 0
119 242 -283 0
-119 242 283 0
119 -242 283 0
-119 -242 -283 0
120 242 -284 0
-120 242 284 0
120 -242 284 0
-120 -242 -284 0
121 242 -285 0
-121 242 285 0
121 -242 285 0
-121 -242 -285 0
122 242 -286 0
-122 242 286 0
122 -242 286 0
-122 -242 -286 0
123 242 -287 0
-123 242 287 0
123 -242 287 0
-123 -242 -287 0
124 242 -288 0
-124 242 288 0
124 -242 288 0
-124 -242 -288 0
125 242 -289 0
-125 242 289 0
125 -242 289 0
-125 -242 -289 0
126 242 -290 0
-126 242 290 0
126 -242 290 0
-126 -242 -290 0
127 242 -291 0
-127 242 291 0
127 -242 291 0
-127 -242 -291 0
128 242 -292 0
-128 242 292 0
128 -242 292 0
-128 -242 -292 0
129 242 -293 0
-129 242 293 0
129 -242 293 0
-129 -242 -293 0
130 242 -294 0
-130 242 294 0
130 -242 294 0
-130 -242 -294 0
131 242 -295 0
-131 242 295 0
131 -242 295 0
-131 -242 -295 0
132 242 -296 0
-132 242 296 0
132 -242 296 0
-132 -242 -296 0
133 242 -297 0
-133 242 297 0
133 -242 297 0
-133 -242 -297 0
134 242 -298 0
-134 242 298 0
134 -242 298 0
-134 -242 -298 0
135 242 -299 0
-135 242 299 0
135 -242 299 0
-135 -242 -299 0
136 242 -300 0
-136 242 300 0
136 -242 300 0
-136 -242 -300 0
137 242 -301 0
-137 242 301 0
137 -242 301 0
-137 -242 -301 0
138 242 -302 0
-138 242 302 0
138 -242 302 0
-138 -242 -302 0
139 242 -303 0
-139 242 303 0
139 -242 303 0
-139 -242 -303 0
140 242 -304 0
-140 242 304 0
140 -242 304 0
-140 -242 -304 0
141 242 -305 0
-141 242 305 0
141 -242 305 0
-141 -242 -305 0
142 242 -306 0
-142 242 306 0
142 -242 306 0
-142 -242 -306 0
143 242 -307 0
-143 242 307 0
143 -242 307 0
-143 -242 -307 0
144 242 -308 0
-144 242 308 0
144 -242 308 0
-144 -242 -308 0
145 242 -309 0
-145 242 309 0
145 -242 309 0
-145 -242 -309 0
146 242 -310 0
-146 242 310 0
146 -242 310 0
-146 -242 -310 0
147 242 -311 0
-147 242 311 0
147 -242 311 0
-147 -242 -311 0
148 242 -312 0
-148 242 312 0
148 -242 312 0
-148 -242 -312 0
149 242 -313 0
-149 242 313 0
149 -242 313 0
-149 -242 -313 0
150 242 -314 0
-150 242 314 0
150 -242 314 0
-150 -242 -314 0
151 242 -315 0
-151 242 315 0
151 -242 315 0
-151 -242 -315 0
152 242 -316 0
-152 242 316 0
152 -242 316 0
-152 -242 -316 0
153 242 -317 0
-153 242 317 0
153 -242 317 0
-153 -242 -317 0
154 242 -318 0
-154 242 318 0
154 -242 318 0
-154 -242 -318 0
155 242 -319 0
-155 242 319 0
155 -242 319 0
-155 -242 -319 0
156 242 -320 0
-156 242 320 0
156 -242 320 0
-156 -242 -320 0
157 242 -321 0
-157 242 321 0
157 -242 321 0
-157 -242 -321 0
158 242 -322 0
-158 242 322 0
158 -242 322 0
-158 -242 -322 0
159 242 -323 0
-159 242 323 0
159 -242 323 0
-159 -242 -323 0
160 242 -324 0
-160 242 324 0
160 -242 324 0
-160 -242 -324 0
1 245 -326 0
-1 245 326 0
1 -245 326 0
-1 -245 -326 0
326 242 -161 0
-326 242 161 0
326 -242 161 0
-326 -242 -161 0
242 -327 0
326 -327 0
-242 -326 327 0
245 -328 0
1 -328 0
-245 -1 328 0
-327 325 0
-328 325 0
327 328 -325 0
2 246 -330 0
-2 246 330 0
2 -246 330 0
-2 -246 -330 0
330 325 -162 0
-330 325 162 0
330 -325 162 0
-330 -325 -162 0
325 -331 0
330 -331 0
-325 -330 331 0
246 -332 0
2 -332 0
-246 -2 332 0
-331 329 0
-332 329 0
331 332 -329 0
3 247 -334 0
-3 247 334 0
3 -247 334 0
-3 -247 -334 0
334 329 -163 0
-334 329 163 0
334 -329 163 0
-334 -329 -163 0
329 -335 0
334 -335 0
-329 -334 335 0
247 -336 0
3 -336 0
-247 -3 336 0
-335 333 0
-336 333 0
335 336 -333 0
4 248 -338 0
-4 248 338 0
4 -248 338 0
-4 -248 -338 0
338 333 -164 0
-338 333 164 0
338 -333 164 0
-338 -333 -164 0
333 -339 0
338 -339 0
-333 -338 339 0
248 -340 0
4 -340 0
-248 -4 340 0
-339 337 0
-340 337 0
339 340 -337 0
5 249 -342 0
-5 249 342 0
5 -249 342 0
-5 -249 -342 0
342 337 -165 0
-342 337 165 0
342 -337 165 0
-342 -337 -165 0
337 -343 0
342 -343 0
-337 -342 343 0
249 -344 0
5 -344 0
-249 -5 344 0
-343 341 0
-344 341 0
343 344 -341 0
6 250 -346 0
-6 250 346 0
6 -250 346 0
-6 -250 -346 0
346 341 -166 0
-346 341 166 0
346 -341 166 0
-346 -341 -166 0
341 -347 0
346 -347 0
-341 -346 347 0
250 -348 0
6 -348 0
-250 -6 348 0
-347 345 0
-348 345 0
347 348 -345 0
7 251 -350 0
-7 251 350 0
7 -251 350 0
-7 -251 -350 0
350 345 -167 0
-350 345 167 0
350 -345 167 0
-350 -345 -167 0
345 -351 0
350 -351 0
-345 -350 351 0
251 -352 0
7 -352 0
-251 -7 352 0
-351 349 0
-352 349 0
351 352 -349 0
8 252 -354 0
-8 252 354 0
8 -252 354 0
-8 -252 -354 0
354 349 -168 0
-354 349 168 0
354 -349 168 0
-354 -349 -168 0
349 -355 0
354 -355 0
-349 -354 355 0
252 -356 0
8 -356 0
-252 -8 356 0
-355 353 0
-356 353 0
355 356 -353 0
9 253 -358 0
-9 253 358 0
9 -253 358 0
-9 -253 -358 0
358 353 -169 0
-358 353 169 0
358 -353 169 0
-358 -353 -169 0
353 -359 0
358 -359 0
-353 -358 359 0
253 -360 0
9 -360 0
-253 -9 360 0
-359 357 0
-360 357 0
359 360 -357 0
10 254 -362 0
-10 254 362 0
10 -254 362 0
-10 -254 -362 0
362 357 -170 0
-362 357 170 0
362 -357 170 0
-362 -357 -170 0
357 -363 0
362 -363 0
-357 -362 363 0
254 -364 0
10 -364 0
-254 -10 364 0
-363 361 0
-364 361 0
363 364 -361 0
11 255 -366 0
-11 255 366 0
11 -255 366 0
-11 -255 -366 0
366 361 -171 0
-366 361 171 0
366 -361 171 0
-366 -361 -171 0
361 -367 0
366 -367 0
-361 -366 367 0
255 -368 0
11 -368 0
-255 -11 368 0
-367 365 0
-368 365 0
367 368 -365 0
12 256 -370 0
-12 256 370 0
12 -256 370 0
-12 -256 -370 0
370 365 -172 0
-370 365 172 0
370 -365 172 0
-370 -365 -172 0
365 -371 0
370 -371 0
-365 -370 371 0
256 -372 0
12 -372 0
-256 -12 372 0
-371 369 0
-372 369 0
371 372 -369 0
13 257 -374 0
-13 257 374 0
13 -257 374 0
-13 -257 -374 0
374 369 -173 0
-374 369 173 0
374 -369 173 0
-374 -369 -173 0
369 -375 0
374 -375 0
-369 -374 375 0
257 -376 0
13 -376 0
-257 -13 376 0
-375 373 0
-376 373 0
375 376 -373 0
14 258 -378 0
-14 258 378 0
14 -258 378 0
-14 -258 -378 0
378 373 -174 0
-378 373 174 0
378 -373 174 0
-378 -373 -174 0
373 -379 0
378 -379 0
-373 -378 379 0
258 -380 0
14 -380 0
-258 -14 380 0
-379 377 0
-380 377 0
379 380 -377 0
15 259 -382 0
-15 259 382 0
15 -259 382 0
-15 -259 -382 0
382 377 -175 0
-382 377 175 0
382 -377 175 0
-382 -377 -175 0
377 -383 0
382 -383 0
-377 -382 383 0
259 -384 0
15 -384 0
-259 -15 384 0
-383 381 0
-384 381 0
383 384 -381 0
16 260 -386 0
-16 260 386 0
16 -260 386 0
-16 -260 -386 0
386 381 -176 0
-386 381 176 0
386 -381 176 0
-386 -381 -176 0
381 -387 0
386 -387 0
-381 -386 387 0
260 -388 0
16 -388 0
-260 -16 388 0
-387 385 0
-388 385 0
387 388 -385 0
17 261 -390 0
-17 261 390 0
17 -261 390 0
-17 -261 -390 0
390 385 -177 0
-390 385 177 0
390 -385 177 0
-390 -385 -177 0
385 -391 0
390 -391 0
-385 -390 391 0
261 -392 0
17 -392 0
-261 -17 392 0
-391 389 0
-392 389 0
391 392 -389 0
18 262 -394 0
-18 262 394 0
18 -262 394 0
-18 -262 -394 0
394 389 -178 0
-394 389 178 0
394 -389 178 0
-394 -389 -178 0
389 -395 0
394 -395 0
-389 -394 395 0
262 -396 0
18 -396 0
-262 -18 396 0
-395 393 0
-396 393 0
395 396 -393 0
19 263 -398 0
-19 263 398 0
19 -263 398 0
-19 -263 -398 0
398 393 -179 0
-398 393 179 0
398 -393 179 0
-398 -393 -179 0
393 -399 0
398 -399 0
-393 -398 399 0
263 -400 0
19 -400 0
-263 -19 400 0
-399 397 0
-400 397 0
399 400 -397 0
20 264 -402 0
-20 264 402 0
20 -264 402 0
-20 -264 -402 0
402 397 -180 0
-402 397 180 0
402 -397 180 0
-402 -397 -180 0
397 -403 0
402 -403 0
-397 -402 403 0
264 -404 0
20 -404 0
-264 -20 404 0
-403 401 0
-404 401 0
403 404 -401 0
21 265 -406 0
-21 265 406 0
21 -265 406 0
-21 -265 -406 0
406 401 -181 0
-406 401 181 0
406 -401 181 0
-406 -401 -181 0
401 -407 0
406 -407 0
-401 -406 407 0
265 -408 0
21 -408 0
-265 -21 408 0
-407 405 0
-408 405 0
407 408 -405 0
22 266 -410 0
-22 266 410 0
22 -266 410 0
-22 -266 -410 0
410 405 -182 0
-410 405 182 0
410 -405 182 0
-410 -405 -182 0
405 -411 0
410 -411 0
-405 -410 411 0
266 -412 0
22 -412 0
-266 -22 412 0
-411 409 0
-412 409 0
411 412 -409 0
23 267 -414 0
-23 267 414 0
23 -267 414 0
-23 -267 -414 0
414 409 -183 0
-414 409 183 0
414 -409 183 0
-414 -409 -183 0
409 -415 0
414 -415 0
-409 -414 415 0
267 -416 0
23 -416 0
-267 -23 416 0
-415 413 0
-416 413 0
415 416 -413 0
24 268 -418 0
-24 268 418 0
24 -268 418 0
-24 -268 -418 0
418 413 -184 0
-418 413 184 0
418 -413 184 0
-418 -413 -184 0
413 -419 0
418 -419 0
-413 -418 419 0
268 -420 0
24 -420 0
-268 -24 420 0
-419 417 0
-420 417 0
419 420 -417 0
25 269 -422 0
-25 269 422 0
25 -269 422 0
-25 -269 -422 0
422 417 -185 0
-422 417 185 0
422 -417 185 0
-422 -417 -185 0
417 -423 0
422 -423 0
-417 -422 423 0
269 -424 0
25 -424 0
-269 -25 424 0
-423 421 0
-424 421 0
423 424 -421 0
26 270 -426 0
-26 270 426 0
26 -270 426 0
-26 -270 -426 0
426 421 -186 0
-426 421 186 0
426 -421 186 0
-426 -421 -186 0
421 -427 0
426 -427 0
-421 -426 427 0
270 -428 0
26 -428 0
-270 -26 428 0
-427 425 0
-428 425 0
427 428 -425 0
27 271 -430 0
-27 271 430 0
27 -271 430 0
-27 -271 -430 0
430 425 -187 0
-430 425 187 0
430 -425 187 0
-430 -425 -187 0
425 -431 0
430 -431 0
-425 -430 431 0
271 -432 0
27 -432 0
-271 -27 432 0
-431 429 0
-432 429 0
431 432 -429 0
28 272 -434 0
-28 272 434 0
28 -272 434 0
-28 -272 -434 0
434 429 -188 0
-434 429 188 0
434 -429 188 0
-434 -429 -188 0
429 -435 0
434 -435 0
-429 -434 435 0
272 -436 0
28 -436 0
-272 -28 436 0
-435 433 0
-436 433 0
435 436 -433 0
29 273 -438 0
-29 273 438 0
29 -273 438 0
-29 -273 -438 0
438 433 -189 0
-438 433 189 0
438 -433 189 0
-438 -433 -189 0
433 -439 0
438 -439 0
-433 -438 439 0
273 -440 0
29 -440 0
-273 -29 440 0
-439 437 0
-440 437 0
439 440 -437 0
30 274 -442 0
-30 274 442 0
30 -274 442 0
-30 -274 -442 0
442 437 -190 0
-442 437 190 0
442 -437 190 0
-442 -437 -190 0
437 -443 0
442 -443 0
-437 -442 443 0
274 -444 0
30 -444 0
-274 -30 444 0
-443 441 0
-444 441 0
443 444 -441 0
31 275 -446 0
-31 275 446 0
31 -275 446 0
-31 -275 -446 0
446 441 -191 0
-446 441 191 0
446 -441 191 0
-446 -441 -191 0
441 -447 0
446 -447 0
-441 -446 447 0
275 -448 0
31 -448 0
-275 -31 448 0
-447 445 0
-448 445 0
447 448 -445 0
32 276 -450 0
-32 276 450 0
32 -276 450 0
-32 -276 -450 0
450 445 -192 0
-450 445 192 0
450 -445 192 0
-450 -445 -192 0
445 -451 0
450 -451 0
-445 -450 451 0
276 -452 0
32 -452 0
-276 -32 452 0
-451 449 0
-452 449 0
451 452 -449 0
33 277 -454 0
-33 277 454 0
33 -277 454 0
-33 -277 -454 0
454 449 -193 0
-454 449 193 0
454 -449 193 0
-454 -449 -193 0
449 -455 0
454 -455 0
-449 -454 455 0
277 -456 0
33 -456 0
-277 -33 456 0
-455 453 0
-456 453 0
455 456 -453 0
34 278 -458 0
-34 278 458 0
34 -278 458 0
-34 -278 -458 0
458 453 -194 0
-458 453 194 0
458 -453 194 0
-458 -453 -194 0
453 -459 0
458 -459 0
-453 -458 459 0
278 -460 0
34 -460 0
-278 -34 460 0
-459 457 0
-460 457 0
459 460 -457 0
35 279 -462 0
-35 279 462 0
35 -279 462 0
-35 -279 -462 0
462 457 -195 0
-462 457 195 0
462 -457 195 0
-462 -457 -195 0
457 -463 0
462 -463 0
-457 -462 463 0
279 -464 0
35 -464 0
-279 -35 464 0
-463 461 0
-464 461 0
463 464 -461 0
36 280 -466 0
-36 280 466 0
36 -280 466 0
-36 -280 -466 0
466 461 -196 0
-466 461 196 0
466 -461 196 0
-466 -461 -196 0
461 -467 0
466 -467 0
-461 -466 467 0
280 -468 0
36 -468 0
-280 -36 468 0
-467 465 0
-468 465 0
467 468 -465 0
37 281 -470 0
-37 281 470 0
37 -281 470 0
-37 -281 -470 0
470 465 -197 0
-470 465 197 0
470 -465 197 0
-470 -465 -197 0
465 -471 0
470 -471 0
-465 -470 471 0
281 -472 0
37 -472 0
-281 -37 472 0
-471 469 0
-472 469 0
471 472 -469 0
38 282 -474 0
-38 282 474 0
38 -282 474 0
-38 -282 -474 0
474 469 -198 0
-474 469 198 0
474 -469 198 0
-474 -469 -198 0
469 -475 0
474 -475 0
-469 -474 475 0
282 -476 0
38 -476 0
-282 -38 476 0
-475 473 0
-476 473 0
475 476 -473 0
39 283 -478 0
-39 283 478 0
39 -283 478 0
-39 -283 -478 0
478 473 -199 0
-478 473 199 0
478 -473 199 0
-478 -473 -199 0
473 -479 0
478 -479 0
-473 -478 479 0
283 -480 0
39 -480 0
-283 -39 480 0
-479 477 0
-480 477 0
479 480 -477 0
40 284 -482 0
-40 284 482 0
40 -284 482 0
-40 -284 -482 0
482 477 -200 0
-482 477 200 0
482 -477 200 0
-482 -477 -200 0
477 -483 0
482 -483 0
-477 -482 483 0
284 -484 0
40 -484 0
-284 -40 484 0
-483 481 0
-484 481 0
483 484 -481 0
41 285 -486 0
-41 285 486 0
41 -285 486 0
-41 -285 -486 0
486 481 -201 0
-486 481 201 0
486 -481 201 0
-486 -481 -201 0
481 -487 0
486 -487 0
-481 -486 487 0
285 -488 0
41 -488 0
-285 -41 488 0
-487 485 0
-488 485 0
487 488 -485 0
42 286 -490 0
-42 286 490 0
42 -286 490 0
-42 -286 -490 0
490 485 -202 0
-490 485 202 0
490 -485 202 0
-490 -485 -202 0
485 -491 0
490 -491 0
-485 -490 491 0
286 -492 0
42 -492 0
-286 -42 492 0
-491 489 0
-492 489 0
491 492 -489 0
43 287 -494 0
-43 287 494 0
43 -287 494 0
-43 -287 -494 0
494 489 -203 0
-494 489 203 0
494 -489 203 0
-494 -489 -203 0
489 -495 0
494 -495 0
-489 -494 495 0
287 -496 0
43 -496 0
-287 -43 496 0
-495 493 0
-496 493 0
495 496 -493 0
44 288 -498 0
-44 288 498 0
44 -288 498 0
-44 -288 -498 0
498 493 -204 0
-498 493 204 0
498 -493 204 0
-498 -493 -204 0
493 -499 0
498 -499 0
-493 -498 499 0
288 -500 0
44 -500 0
-288 -44 500 0
-499 497 0
-500 497 0
499 500 -497 0
45 289 -502 0
-45 289 502 0
45 -289 502 0
-45 -289 -502 0
502 497 -205 0
-502 497 205 0
502 -497 205 0
-502 -497 -205 0
497 -503 0
502 -503 0
-497 -502 503 0
289 -504 0
45 -504 0
-289 -45 504 0
-503 501 0
-504 501 0
503 504 -501 0
46 290 -506 0
-46 290 506 0
46 -290 506 0
-46 -290 -506 0
506 501 -206 0
-506 501 206 0
506 -501 206 0
-506 -501 -206 0
501 -507 0
506 -507 0
-501 -506 507 0
290 -508 0
46 -508 0
-290 -46 508 0
-507 505 0
-508 505 0
507 508 -505 0
47 291 -510 0
-47 291 510 0
47 -291 510 0
-47 -291 -510 0
510 505 -207 0
-510 505 207 0
510 -505 207 0
-510 -505 -207 0
505 -511 0
510 -511 0
-505 -510 511 0
291 -512 0
47 -512 0
-291 -47 512 0
-511 509 0
-512 509 0
511 512 -509 0
48 292 -514 0
-48 292 514 0
48 -292 514 0
-48 -292 -514 0
514 509 -208 0
-514 509 208 0
514 -509 208 0
-514 -509 -208 0
509 -515 0
514 -515 0
-509 -514 515 0
292 -516 0
48 -516 0
-292 -48 516 0
-515 513 0
-516 513 0
515 516 -513 0
49 293 -518 0
-49 293 518 0
49 -293 518 0
-49 -293 -518 0
518 513 -209 0
-518 513 209 0
518 -513 209 0
-518 -513 -209 0
513 -519 0
518 -519 0
-513 -518 519 0
293 -520 0
49 -520 0
-293 -49 520 0
-519 517 0
-520 517 0
519 520 -517 0
50 294 -522 0
-50 294 522 0
50 -294 522 0
-50 -294 -522 0
522 517 -210 0
-522 517 210 0
522 -517 210 0
-522 -517 -210 0
517 -523 0
522 -523 0
-517 -522 523 0
294 -524 0
50 -524 0
-294 -50 524 0
-523 521 0
-524 521 0
523 524 -521 0
51 295 -526 0
-51 295 526 0
51 -295 526 0
-51 -295 -526 0
526 521 -211 0
-526 521 211 0
526 -521 211 0
-526 -521 -211 0
521 -527 0
526 -527 0
-521 -526 527 0
295 -528 0
51 -528 0
-295 -51 528 0
-527 525 0
-528 525 0
527 528 -525 0
52 296 -530 0
-52 296 530 0
52 -296 530 0
-52 -296 -530 0
530 525 -212 0
-530 525 212 0
530 -525 212 0
-530 -525 -212 0
525 -531 0
530 -531 0
-525 -530 531 0
296 -532 0
52 -532 0
-296 -52 532 0
-531 529 0
-532 529 0
531 532 -529 0
53 297 -534 0
-53 297 534 0
53 -297 534 0
-53 -297 -534 0
534 529 -213 0
-534 529 213 0
534 -529 213 0
-534 -529 -213 0
529 -535 0
534 -535 0
-529 -534 535 0
297 -536 0
53 -536 0
-297 -53 536 0
-535 533 0
-536 533 0
535 536 -533 0
54 298 -538 0
-54 298 538 0
54 -298 538 0
-54 -298 -538 0
538 533 -214 0
-538 533 214 0
538 -533 214 0
-538 -533 -214 0
533 -539 0
538 -539 0
-533 -538 539 0
298 -540 0
54 -540 0
-298 -54 540 0
-539 537 0
-540 537 0
539 540 -537 0
55 299 -542 0
-55 299 542 0
55 -299 542 0
-55 -299 -542 0
542 537 -215 0
-542 537 215 0
542 -537 215 0
-542 -537 -215 0
537 -543 0
542 -543 0
-537 -542 543 0
299 -544 0
55 -544 0
-299 -55 544 0
-543 541 0
-544 541 0
543 544 -541 0
56 300 -546 0
-56 300 546 0
56 -300 546 0
-56 -300 -546 0
546 541 -216 0
-546 541 216 0
546 -541 216 0
-546 -541 -216 0
541 -547 0
546 -547 0
-541 -546 547 0
300 -548 0
56 -548 0
-300 -56 548 0
-547 545 0
-548 545 0
547 548 -545 0
57 301 -550 0
-57 301 550 0
57 -301 550 0
-57 -301 -550 0
550 545 -217 0
-550 545 217 0
550 -545 217 0
-550 -545 -217 0
545 -551 0
550 -551 0
-545 -550 551 0
301 -552 0
57 -552 0
-301 -57 552 0
-551 549 0
-552 549 0
551 552 -549 0
58 302 -554 0
-58 302 554 0
58 -302 554 0
-58 -302 -554 0
554 549 -218 0
-554 549 218 0
554 -549 218 0
-554 -549 -218 0
549 -555 0
554 -555 0
-549 -554 555 0
302 -556 0
58 -556 0
-302 -58 556 0
-555 553 0
-556 553 0
555 556 -553 0
59 303 -558 0
-59 303 558 0
59 -303 558 0
-59 -303 -558 0
558 553 -219 0
-558 553 219 0
558 -553 219 0
-558 -553 -219 0
553 -559 0
558 -559 0
-553 -558 559 0
303 -560 0
59 -560 0
-303 -59 560 0
-559 557 0
-560 557 0
559 560 -557 0
60 304 -562 0
-60 304 562 0
60 -304 562 0
-60 -304 -562 0
562 557 -220 0
-562 557 220 0
562 -557 220 0
-562 -557 -220 0
557 -563 0
562 -563 0
-557 -562 563 0
304 -564 0
60 -564 0
-304 -60 564 0
-563 561 0
-564 561 0
563 564 -561 0
61 305 -566 0
-61 305 566 0
61 -305 566 0
-61 -305 -566 0
566 561 -221 0
-566 561 221 0
566 -561 221 0
-566 -561 -221 0
561 -567 0
566 -567 0
-561 -566 567 0
305 -568 0
61 -568 0
-305 -61 568 0
-567 565 0
-568 565 0
567 568 -565 0
62 306 -570 0
-62 306 570 0
62 -306 570 0
-62 -306 -570 0
570 565 -222 0
-570 565 222 0
570 -565 222 0
-570 -565 -222 0
565 -571 0
570 -571 0
-565 -570 571 0
306 -572 0
62 -572 0
-306 -62 572 0
-571 569 0
-572 569 0
571 572 -569 0
63 307 -574 0
-63 307 574 0
63 -307 574 0
-63 -307 -574 0
574 569 -223 0
-574 569 223 0
574 -569 223 0
-574 -569 -223 0
569 -575 0
574 -575 0
-569 -574 575 0
307 -576 0
63 -576 0
-307 -63 576 0
-575 573 0
-576 573 0
575 576 -573 0
64 308 -578 0
-64 308 578 0
64 -308 578 0
-64 -308 -578 0
578 573 -224 0
-578 573 224 0
578 -573 224 0
-578 -573 -224 0
573 -579 0
578 -579 0
-573 -578 579 0
308 -580 0
64 -580 0
-308 -64 580 0
-579 577 0
-580 577 0
579 580 -577 0
65 309 -582 0
-65 309 582 0
65 -309 582 0
-65 -309 -582 0
582 577 -225 0
-582 577 225 0
582 -577 225 0
-582 -577 -225 0
577 -583 0
582 -583 0
-577 -582 583 0
309 -584 0
65 -584 0
-309 -65 584 0
-583 581 0
-584 581 0
583 584 -581 0
66 310 -586 0
-66 310 586 0
66 -310 586 0
-66 -310 -586 0
586 581 -226 0
-586 581 226 0
586 -581 226 0
-586 -581 -226 0
581 -587 0
586 -587 0
-581 -586 587 0
310 -588 0
66 -588 0
-310 -66 588 0
-587 585 0
-588 585 0
587 588 -585 0
67 311 -590 0
-67 311 590 0
67 -311 590 0
-67 -311 -590 0
590 585 -227 0
-590 585 227 0
590 -585 227 0
-590 -585 -227 0
585 -591 0
590 -591 0
-585 -590 591 0
311 -592 0
67 -592 0
-311 -67 592 0
-591 589 0
-592 589 0
591 592 -589 0
68 312 -594 0
-68 312 594 0
68 -312 594 0
-68 -312 -594 0
594 589 -228 0
-594 589 228 0
594 -589 228 0
-594 -589 -228 0
589 -595 0
594 -595 0
-589 -594 595 0
312 -596 0
68 -596 0
-312 -68 596 0
-595 593 0
-596 593 0
595 596 -593 0
69 313 -598 0
-69 313 598 0
69 -313 598 0
-69 -313 -598 0
598 593 -229 0
-598 593 229 0
598 -593 229 0
-598 -593 -229 0
593 -599 0
598 -599 0
-593 -598 599 0
313 -600 0
69 -600 0
-313 -69 600 0
-599 597 0
-600 597 0
599 600 -597 0
70 314 -602 0
-70 314 602 0
70 -314 602 0
-70 -314 -602 0
602 597 -230 0
-602 597 230 0
602 -597 230 0
-602 -597 -230 0
597 -603 0
602 -603 0
-597 -602 603 0
314 -604 0
70 -604 0
-314 -70 604 0
-603 601 0
-604 601 0
603 604 -601 0
71 315 -606 0
-71 315 606 0
71 -315 606 0
-71 -315 -606 0
606 601 -231 0
-606 601 231 0
606 -601 231 0
-606 -601 -231 0
601 -607 0
606 -607 0
-601 -606 607 0
315 -608 0
71 -608 0
-315 -71 608 0
-607 605 0
-608 605 0
607 608 -605 0
72 316 -610 0
-72 316 610 0
72 -316 610 0
-72 -316 -610 0
610 605 -232 0
-610 605 232 0
610 -605 232 0
-610 -605 -232 0
605 -611 0
610 -611 0
-605 -610 611 0
316 -612 0
72 -612 0
-316 -72 612 0
-611 609 0
-612 609 0
611 612 -609 0
73 317 -614 0
-73 317 614 0
73 -317 614 0
-73 -317 -614 0
614 609 -233 0
-614 609 233 0
614 -609 233 0
-614 -609 -233 0
609 -615 0
614 -615 0
-609 -614 615 0
317 -616 0
73 -616 0
-317 -73 616 0
-615 613 0
-616 613 0
615 616 -613 0
74 318 -618 0
-74 318 618 0
74 -318 618 0
-74 -318 -618 0
618 613 -234 0
-618 613 234 0
618 -613 234 0
-618 -613 -234 0
613 -619 0
618 -619 0
-613 -618 619 0
318 -620 0
74 -620 0
-318 -74 620 0
-619 617 0
-620 617 0
619 620 -617 0
75 319 -622 0
-75 319 622 0
75 -319 622 0
-75 -319 -622 0
622 617 -235 0
-622 617 235 0
622 -617 235 0
-622 -617 -235 0
617 -623 0
622 -623 0
-617 -622 623 0
319 -624 0
75 -624 0
-319 -75 624 0
-623 621 0
-624 621 0
623 624 -621 0
76 320 -626 0
-76 320 626 0
76 -320 626 0
-76 -320 -626 0
626 621 -236 0
-626 621 236 0
626 -621 236 0
-626 -621 -236 0
621 -627 0
626 -627 0
-621 -626 627 0
320 -628 0
76 -628 0
-320 -76 628 0
-627 625 0
-628 625 0
627 628 -625 0
77 321 -630 0
-77 321 630 0
77 -321 630 0
-77 -321 -630 0
630 625 -237 0
-630 625 237 0
630 -625 237 0
-630 -625 -237 0
625 -631 0
630 -631 0
-625 -630 631 0
321 -632 0
77 -632 0
-321 -77 632 0
-631 629 0
-632 629 0
631 632 -629 0
78 322 -634 0
-78 322 634 0
78 -322 634 0
-78 -322 -634 0
634 629 -238 0
-634 629 238 0
634 -629 238 0
-634 -629 -238 0
629 -635 0
634 -635 0
-629 -634 635 0
322 -636 0
78 -636 0
-322 -78 636 0
-635 633 0
-636 633 0
635 636 -633 0
79 323 -638 0
-79 323 638 0
79 -323 638 0
-79 -323 -638 0
638 633 -239 0
-638 633 239 0
638 -633 239 0
-638 -633 -239 0
633 -639 0
638 -639 0
-633 -638 639 0
323 -640 0
79 -640 0
-323 -79 640 0
-639 637 0
-640 637 0
639 640 -637 0
80 324 -642 0
-80 324 642 0
80 -324 642 0
-80 -324 -642 0
642 637 -240 0
-642 637 240 0
642 -637 240 0
-642 -637 -240 0
637 -643 0
642 -643 0
-637 -642 643 0
324 -644 0
80 -644 0
-324 -80 644 0
-643 641 0
-644 641 0
643 644 -641 0
641 242 -241 0
-641 242 241 0
641 -242 241 0
-641 -242 -241 0
